max_credits = 6;
n_courses = 3;
n_students = 3;

course_names = [
  "MINERIA DE DATOS",
  "MULTIMEDIA",
  "SISTEMAS INTELIGENTES"
];

course_codes = [
  "MD",
  "MM",
  "SI"
];

capacity = [1, 1, 1];
credits = [6, 6, 6];

students = [
  "alumnoA@upm.es",
  "alumnoB@upm.es",
  "alumnoC@upm.es"
];

pref = array2d(1..n_students, 1..n_courses,
[
  % MD, MM, SI
     3,  0,  0,   % Alumno A solo quiere MD
     3,  3,  0,   % Alumno B quiere MD y MM
     0,  3,  0    % Alumno C solo quiere MM
]);

avg_grade_100 = [
  700,
  700,
  700
];

previous_rejections = array2d(1..n_students, 1..n_courses,
[
  % MD, MM, SI
     0, 0, 0,
     0, 0, 0,
     0, 0, 0
]);